PREC = Accurate
ENCUT=500
IBRION=-1
EDIFF=1.0e-08
IALGO=38
ISMEAR=0
SIGMA=0.1
LREAL=.FALSE.
LWAVE=.FALSE.
LCHARG=.FALSE.
NCORE=8
