generated by phonopy
   1.0
     9.5515814060695305    0.0000000000000000    0.0000000000000000
    -4.7757907030347653    8.2719121440116297    0.0000000000000000
     0.0000000000000000    0.0000000000000000   15.0000000000000000
Mo S
   9   18
Direct
  0.2222222290000009  0.1111111143333332  0.2500000000000000
  0.5555555623333343  0.1111111143333332  0.2500000000000000
  0.8888888956666676  0.1111111143333332  0.2500000000000000
  0.2222222290000009  0.4444444476666665  0.2500000000000000
  0.5555555623333343  0.4444444476666665  0.2500000000000000
  0.8888888956666676  0.4444444476666665  0.2500000000000000
  0.2222222290000009  0.7777777809999998  0.2500000000000000
  0.5555555623333343  0.7777777809999998  0.2500000000000000
  0.8888888956666676  0.7777777809999998  0.2500000000000000
  0.1111111143333332  0.2222222290000009  0.3541521301896355
  0.4444444476666665  0.2222222290000009  0.3541521301896355
  0.7777777809999998  0.2222222290000009  0.3541521301896355
  0.1111111143333332  0.5555555623333343  0.3541521301896355
  0.4444444476666665  0.5555555623333343  0.3541521301896355
  0.7777777809999998  0.5555555623333343  0.3541521301896355
  0.1111111143333332  0.8888888956666676  0.3541521301896355
  0.4444444476666665  0.8888888956666676  0.3541521301896355
  0.7777777809999998  0.8888888956666676  0.3541521301896355
  0.1111111143333332  0.2222222290000009  0.1458478698103645
  0.4444444476666665  0.2222222290000009  0.1458478698103645
  0.7777777809999998  0.2222222290000009  0.1458478698103645
  0.1111111143333332  0.5555555623333343  0.1458478698103645
  0.4444444476666665  0.5555555623333343  0.1458478698103645
  0.7777777809999998  0.5555555623333343  0.1458478698103645
  0.1111111143333332  0.8888888956666676  0.1458478698103645
  0.4444444476666665  0.8888888956666676  0.1458478698103645
  0.7777777809999998  0.8888888956666676  0.1458478698103645
