generated by phonopy                    
   1.00000000000000     
     9.5515814060695305    0.0000000000000000    0.0000000000000000
    -4.7757907030347653    8.2719121440116297    0.0000000000000000
     0.0000000000000000    0.0000000000000000   15.0000000000000000
   Mo   S 
     9    18
Direct
  0.2222222290000033  0.1111111143333332  0.2500000000000000
  0.5555555623333319  0.1111111143333332  0.2500000000000000
  0.8888888956666676  0.1111111143333332  0.2500000000000000
  0.2222222290000033  0.4444444476666689  0.2500000000000000
  0.5555555623333319  0.4444444476666689  0.2500000000000000
  0.8888888956666676  0.4444444476666689  0.2500000000000000
  0.2222222290000033  0.7777777809999975  0.2500000000000000
  0.5555555623333319  0.7777777809999975  0.2500000000000000
  0.8888888956666676  0.7777777809999975  0.2500000000000000
  0.1105487774016325  0.2222222290000033  0.3535897932579317
  0.4444444476666689  0.2222222290000033  0.3541521301896324
  0.7777777809999975  0.2222222290000033  0.3541521301896324
  0.1111111143333332  0.5555555623333319  0.3541521301896324
  0.4444444476666689  0.5555555623333319  0.3541521301896324
  0.7777777809999975  0.5555555623333319  0.3541521301896324
  0.1111111143333332  0.8888888956666676  0.3541521301896324
  0.4444444476666689  0.8888888956666676  0.3541521301896324
  0.7777777809999975  0.8888888956666676  0.3541521301896324
  0.1111111143333332  0.2222222290000033  0.1458478698103676
  0.4444444476666689  0.2222222290000033  0.1458478698103676
  0.7777777809999975  0.2222222290000033  0.1458478698103676
  0.1111111143333332  0.5555555623333319  0.1458478698103676
  0.4444444476666689  0.5555555623333319  0.1458478698103676
  0.7777777809999975  0.5555555623333319  0.1458478698103676
  0.1111111143333332  0.8888888956666676  0.1458478698103676
  0.4444444476666689  0.8888888956666676  0.1458478698103676
  0.7777777809999975  0.8888888956666676  0.1458478698103676
 
  0.00000000E+00  0.00000000E+00  0.00000000E+00
  0.00000000E+00  0.00000000E+00  0.00000000E+00
  0.00000000E+00  0.00000000E+00  0.00000000E+00
  0.00000000E+00  0.00000000E+00  0.00000000E+00
  0.00000000E+00  0.00000000E+00  0.00000000E+00
  0.00000000E+00  0.00000000E+00  0.00000000E+00
  0.00000000E+00  0.00000000E+00  0.00000000E+00
  0.00000000E+00  0.00000000E+00  0.00000000E+00
  0.00000000E+00  0.00000000E+00  0.00000000E+00
  0.00000000E+00  0.00000000E+00  0.00000000E+00
  0.00000000E+00  0.00000000E+00  0.00000000E+00
  0.00000000E+00  0.00000000E+00  0.00000000E+00
  0.00000000E+00  0.00000000E+00  0.00000000E+00
  0.00000000E+00  0.00000000E+00  0.00000000E+00
  0.00000000E+00  0.00000000E+00  0.00000000E+00
  0.00000000E+00  0.00000000E+00  0.00000000E+00
  0.00000000E+00  0.00000000E+00  0.00000000E+00
  0.00000000E+00  0.00000000E+00  0.00000000E+00
  0.00000000E+00  0.00000000E+00  0.00000000E+00
  0.00000000E+00  0.00000000E+00  0.00000000E+00
  0.00000000E+00  0.00000000E+00  0.00000000E+00
  0.00000000E+00  0.00000000E+00  0.00000000E+00
  0.00000000E+00  0.00000000E+00  0.00000000E+00
  0.00000000E+00  0.00000000E+00  0.00000000E+00
  0.00000000E+00  0.00000000E+00  0.00000000E+00
  0.00000000E+00  0.00000000E+00  0.00000000E+00
  0.00000000E+00  0.00000000E+00  0.00000000E+00
