K-Spacing Value to Generate K-Mesh: 0.040
0
Monkhorst-Pack
  16  16   1
0.0  0.0  0.0
