Mo2 S4                                  
   1.00000000000000     
     3.1838604686898435    0.0000000000000000    0.0000000000000000
    -1.5919302343449218    2.7573040480038769    0.0000000000000000
     0.0000000000000000    0.0000000000000000   15.0000000000000000
   Mo   S 
     1     2
Direct
  0.6666666870000029  0.3333333429999996  0.2500000000000000
  0.3333333429999996  0.6666666870000029  0.3541521301896355
  0.3333333429999996  0.6666666870000029  0.1458478698103645
 
  0.00000000E+00  0.00000000E+00  0.00000000E+00
  0.00000000E+00  0.00000000E+00  0.00000000E+00
  0.00000000E+00  0.00000000E+00  0.00000000E+00
